sat
(= |goto_symex::&92;guard#1| true)
(= |goto_symex::&92;guard#2| true)
(= |goto_symex::&92;guard#3| true)
(= |nondet_symex::nondet0| false)
(= |nondet_symex::nondet1| false)
(= |nondet_symex::nondet2| true)
(= |nondet_symex::nondet3| false)
(= |nondet_symex::nondet4| false)
(= |nondet_symex::nondet5| false)
(= |nondet_symex::nondet8| false)
(= |nondet_symex::nondet9| false)
(= |memory_model::choice_rf_1_25_0_11_T_0| false)
(= |memory_model::choice_rf_1_25_2_18_T_1| false)
(= |memory_model::choice_rf_1_25_3_35_T_2| true)
(= |memory_model::choice_rf_2_17_0_11_T_3| true)
(= |memory_model::choice_rf_2_17_1_26_T_4| false)
(= |memory_model::choice_rf_2_17_3_35_T_5| false)
(= |memory_model::choice_rf_3_34_0_11_T_6| false)
(= |memory_model::choice_rf_3_34_1_26_T_7| false)
(= |memory_model::choice_rf_3_34_2_18_T_8| true)
(= |memory_model::choice_rf_0_60_0_9_T_9| false)
(= |memory_model::choice_rf_0_60_0_56_T_10| true)
(= |memory_model::choice_rf_0_65_0_9_T_11| false)
(= |memory_model::choice_rf_0_65_0_56_T_12| false)
(= |memory_model::choice_rf_0_65_0_61_T_13| true)
(= |memory_model::choice_rf_2_0_0_37_F_14| false)
(= |memory_model::choice_rf_2_0_1_22_F_15| true)
(= |memory_model::choice_rf_0_69_0_12_F_16| false)
(= |memory_model::choice_rf_0_69_1_24_F_17| false)
(= |memory_model::choice_rf_0_69_2_16_F_18| false)
(= |memory_model::choice_rf_0_69_3_33_F_19| true)
(= |memory_model::choice_rf_1_23_0_12_F_20| false)
(= |memory_model::choice_rf_1_23_2_16_F_21| true)
(= |memory_model::choice_rf_1_23_3_33_F_22| false)
(= |memory_model::choice_rf_2_15_0_12_F_23| true)
(= |memory_model::choice_rf_2_15_1_24_F_24| false)
(= |memory_model::choice_rf_2_15_3_33_F_25| false)
(= |memory_model::choice_rf_3_32_0_12_F_26| false)
(= |memory_model::choice_rf_3_32_1_24_F_27| true)
(= |memory_model::choice_rf_3_32_2_16_F_28| false)
(= |memory_model::choice_rf_0_89_0_13_F_29| true)
(= |memory_model::choice_rf_0_89_1_19_F_30| false)
(= |memory_model::choice_rf_0_92_0_24_F_31| false)
(= |memory_model::choice_rf_0_92_1_8_F_32| true)
(= |memory_model::choice_rf_0_86_0_30_F_33| false)
(= |memory_model::choice_rf_0_86_2_1_F_34| true)
(= |memory_model::choice_rf_0_85_0_31_F_35| false)
(= |memory_model::choice_rf_0_85_3_7_F_36| true)
(= |memory_model::choice_rf_0_71_0_32_F_37| false)
(= |memory_model::choice_rf_0_71_0_70_F_38| true)
(= |memory_model::choice_rf_0_84_0_33_F_39| false)
(= |memory_model::choice_rf_0_116_0_33_F_40| false)
(= |memory_model::choice_rf_0_116_0_102_F_41| true)
(= |memory_model::choice_rf_0_117_0_33_F_42| false)
(= |memory_model::choice_rf_0_117_0_102_F_43| true)
(= |memory_model::choice_rf_0_72_0_38_F_44| false)
(= |memory_model::choice_rf_0_72_1_15_F_45| false)
(= |memory_model::choice_rf_0_72_2_2_F_46| false)
(= |memory_model::choice_rf_0_72_2_14_F_47| false)
(= |memory_model::choice_rf_0_72_3_13_F_48| false)
(= |memory_model::choice_rf_0_72_3_19_F_49| false)
(= |memory_model::choice_rf_0_72_3_31_F_50| true)
(= |memory_model::choice_rf_0_94_0_38_F_51| false)
(= |memory_model::choice_rf_0_94_0_83_F_52| true)
(= |memory_model::choice_rf_0_94_1_15_F_53| false)
(= |memory_model::choice_rf_0_94_2_2_F_54| false)
(= |memory_model::choice_rf_0_94_2_14_F_55| false)
(= |memory_model::choice_rf_0_94_3_13_F_56| false)
(= |memory_model::choice_rf_0_94_3_19_F_57| false)
(= |memory_model::choice_rf_0_94_3_31_F_58| false)
(= |memory_model::choice_rf_1_6_0_38_F_59| true)
(= |memory_model::choice_rf_1_6_0_83_F_60| false)
(= |memory_model::choice_rf_1_6_0_108_F_61| false)
(= |memory_model::choice_rf_1_6_2_2_F_62| false)
(= |memory_model::choice_rf_1_6_2_14_F_63| false)
(= |memory_model::choice_rf_1_6_3_13_F_64| false)
(= |memory_model::choice_rf_1_6_3_19_F_65| false)
(= |memory_model::choice_rf_1_6_3_31_F_66| false)
(= |memory_model::choice_rf_2_3_0_38_F_67| false)
(= |memory_model::choice_rf_2_3_0_83_F_68| false)
(= |memory_model::choice_rf_2_3_0_108_F_69| false)
(= |memory_model::choice_rf_2_3_1_15_F_70| false)
(= |memory_model::choice_rf_2_3_2_2_F_71| true)
(= |memory_model::choice_rf_2_3_3_13_F_72| false)
(= |memory_model::choice_rf_2_3_3_19_F_73| false)
(= |memory_model::choice_rf_2_3_3_31_F_74| false)
(= |memory_model::choice_rf_3_6_0_38_F_75| false)
(= |memory_model::choice_rf_3_6_0_83_F_76| false)
(= |memory_model::choice_rf_3_6_0_108_F_77| false)
(= |memory_model::choice_rf_3_6_1_15_F_78| false)
(= |memory_model::choice_rf_3_6_2_2_F_79| false)
(= |memory_model::choice_rf_3_6_2_14_F_80| true)
(= |memory_model::choice_rf_3_20_0_38_F_81| false)
(= |memory_model::choice_rf_3_20_0_83_F_82| false)
(= |memory_model::choice_rf_3_20_0_108_F_83| false)
(= |memory_model::choice_rf_3_20_1_15_F_84| false)
(= |memory_model::choice_rf_3_20_2_2_F_85| false)
(= |memory_model::choice_rf_3_20_2_14_F_86| false)
(= |memory_model::choice_rf_3_20_3_13_F_87| false)
(= |memory_model::choice_rf_3_20_3_19_F_88| true)
(= |memory_model::choice_rf_0_93_0_39_F_89| false)
(= |memory_model::choice_rf_0_93_1_18_F_90| false)
(= |memory_model::choice_rf_0_93_3_15_F_91| false)
(= |memory_model::choice_rf_0_96_0_40_F_92| false)
(= |memory_model::choice_rf_0_96_1_17_F_93| false)
(= |memory_model::choice_rf_0_96_3_14_F_94| false)
(= |memory_model::choice_rf_0_77_0_41_F_95| true)
(= |memory_model::choice_rf_0_98_0_41_F_96| false)
(= |memory_model::choice_rf_0_98_0_80_F_97| true)
(= |memory_model::choice_rf_1_4_0_42_F_98| true)
(= |memory_model::choice_rf_2_8_0_43_F_99| true)
(= |memory_model::choice_rf_3_4_0_44_F_100| true)
(= |memory_model::choice_rf_3_25_0_44_F_101| false)
(= |memory_model::choice_rf_3_25_3_17_F_102| true)
(= |memory_model::choice_rf_0_74_0_45_F_103| true)
(= |memory_model::choice_rf_0_99_0_45_F_104| false)
(= |memory_model::choice_rf_0_99_0_79_F_105| true)
(= |memory_model::choice_rf_1_2_0_46_F_106| true)
(= |memory_model::choice_rf_2_5_0_47_F_107| true)
(= |memory_model::choice_rf_3_2_0_48_F_108| true)
(= |memory_model::choice_rf_3_22_0_48_F_109| false)
(= |memory_model::choice_rf_3_22_3_8_F_110| true)
(= |memory_model::choice_rf_0_76_0_51_F_111| false)
(= |memory_model::choice_rf_0_76_1_14_F_112| false)
(= |memory_model::choice_rf_0_76_3_12_F_113| true)
(= |memory_model::choice_rf_0_100_0_51_F_114| false)
(= |memory_model::choice_rf_0_100_1_14_F_115| false)
(= |memory_model::choice_rf_0_100_3_12_F_116| true)
(= |memory_model::choice_rf_1_3_0_51_F_117| true)
(= |memory_model::choice_rf_1_3_0_111_F_118| false)
(= |memory_model::choice_rf_1_3_3_12_F_119| false)
(= |memory_model::choice_rf_2_7_0_51_F_120| false)
(= |memory_model::choice_rf_2_7_0_111_F_121| false)
(= |memory_model::choice_rf_2_7_1_14_F_122| true)
(= |memory_model::choice_rf_2_7_3_12_F_123| false)
(= |memory_model::choice_rf_3_1_0_51_F_124| false)
(= |memory_model::choice_rf_3_1_0_111_F_125| false)
(= |memory_model::choice_rf_3_1_1_14_F_126| true)
(= |memory_model::choice_rf_3_24_0_51_F_127| false)
(= |memory_model::choice_rf_3_24_0_111_F_128| false)
(= |memory_model::choice_rf_3_24_1_14_F_129| false)
(= |memory_model::choice_rf_3_24_3_12_F_130| true)
(= |memory_model::choice_rf_0_78_0_52_F_131| false)
(= |memory_model::choice_rf_0_78_1_12_F_132| false)
(= |memory_model::choice_rf_0_78_2_13_F_133| false)
(= |memory_model::choice_rf_0_78_3_10_F_134| false)
(= |memory_model::choice_rf_0_78_3_30_F_135| true)
(= |memory_model::choice_rf_0_97_0_52_F_136| false)
(= |memory_model::choice_rf_0_97_0_82_F_137| true)
(= |memory_model::choice_rf_0_97_1_12_F_138| false)
(= |memory_model::choice_rf_0_97_2_13_F_139| false)
(= |memory_model::choice_rf_0_97_3_10_F_140| false)
(= |memory_model::choice_rf_0_97_3_30_F_141| false)
(= |memory_model::choice_rf_1_5_0_52_F_142| true)
(= |memory_model::choice_rf_1_5_0_82_F_143| false)
(= |memory_model::choice_rf_1_5_0_113_F_144| false)
(= |memory_model::choice_rf_1_5_2_13_F_145| false)
(= |memory_model::choice_rf_1_5_3_10_F_146| false)
(= |memory_model::choice_rf_1_5_3_30_F_147| false)
(= |memory_model::choice_rf_2_9_0_52_F_148| false)
(= |memory_model::choice_rf_2_9_0_82_F_149| false)
(= |memory_model::choice_rf_2_9_0_113_F_150| false)
(= |memory_model::choice_rf_2_9_1_12_F_151| true)
(= |memory_model::choice_rf_2_9_3_10_F_152| false)
(= |memory_model::choice_rf_2_9_3_30_F_153| false)
(= |memory_model::choice_rf_3_5_0_52_F_154| false)
(= |memory_model::choice_rf_3_5_0_82_F_155| false)
(= |memory_model::choice_rf_3_5_0_113_F_156| false)
(= |memory_model::choice_rf_3_5_1_12_F_157| false)
(= |memory_model::choice_rf_3_5_2_13_F_158| true)
(= |memory_model::choice_rf_3_26_0_52_F_159| false)
(= |memory_model::choice_rf_3_26_0_82_F_160| false)
(= |memory_model::choice_rf_3_26_0_113_F_161| false)
(= |memory_model::choice_rf_3_26_1_12_F_162| false)
(= |memory_model::choice_rf_3_26_2_13_F_163| false)
(= |memory_model::choice_rf_3_26_3_10_F_164| true)
(= |memory_model::choice_rf_0_73_0_53_F_165| false)
(= |memory_model::choice_rf_0_73_1_13_F_166| false)
(= |memory_model::choice_rf_0_73_3_11_F_167| true)
(= |memory_model::choice_rf_0_101_0_53_F_168| false)
(= |memory_model::choice_rf_0_101_1_13_F_169| false)
(= |memory_model::choice_rf_0_101_3_11_F_170| true)
(= |memory_model::choice_rf_1_0_0_53_F_171| true)
(= |memory_model::choice_rf_1_0_0_112_F_172| false)
(= |memory_model::choice_rf_1_0_3_11_F_173| false)
(= |memory_model::choice_rf_2_4_0_53_F_174| false)
(= |memory_model::choice_rf_2_4_0_112_F_175| false)
(= |memory_model::choice_rf_2_4_1_13_F_176| true)
(= |memory_model::choice_rf_2_4_3_11_F_177| false)
(= |memory_model::choice_rf_3_0_0_53_F_178| false)
(= |memory_model::choice_rf_3_0_0_112_F_179| false)
(= |memory_model::choice_rf_3_0_1_13_F_180| true)
(= |memory_model::choice_rf_3_21_0_53_F_181| false)
(= |memory_model::choice_rf_3_21_0_112_F_182| false)
(= |memory_model::choice_rf_3_21_1_13_F_183| false)
(= |memory_model::choice_rf_3_21_3_11_F_184| true)
(= |memory_model::choice_rf_0_75_0_54_F_185| false)
(= |memory_model::choice_rf_0_75_1_11_F_186| false)
(= |memory_model::choice_rf_0_75_2_12_F_187| false)
(= |memory_model::choice_rf_0_75_3_9_F_188| false)
(= |memory_model::choice_rf_0_75_3_29_F_189| true)
(= |memory_model::choice_rf_0_91_0_54_F_190| false)
(= |memory_model::choice_rf_0_91_0_81_F_191| true)
(= |memory_model::choice_rf_0_91_1_11_F_192| false)
(= |memory_model::choice_rf_0_91_2_12_F_193| false)
(= |memory_model::choice_rf_0_91_3_9_F_194| false)
(= |memory_model::choice_rf_0_91_3_29_F_195| false)
(= |memory_model::choice_rf_1_1_0_54_F_196| true)
(= |memory_model::choice_rf_1_1_0_81_F_197| false)
(= |memory_model::choice_rf_1_1_0_105_F_198| false)
(= |memory_model::choice_rf_1_1_2_12_F_199| false)
(= |memory_model::choice_rf_1_1_3_9_F_200| false)
(= |memory_model::choice_rf_1_1_3_29_F_201| false)
(= |memory_model::choice_rf_2_6_0_54_F_202| false)
(= |memory_model::choice_rf_2_6_0_81_F_203| false)
(= |memory_model::choice_rf_2_6_0_105_F_204| false)
(= |memory_model::choice_rf_2_6_1_11_F_205| true)
(= |memory_model::choice_rf_2_6_3_9_F_206| false)
(= |memory_model::choice_rf_2_6_3_29_F_207| false)
(= |memory_model::choice_rf_3_3_0_54_F_208| false)
(= |memory_model::choice_rf_3_3_0_81_F_209| false)
(= |memory_model::choice_rf_3_3_0_105_F_210| false)
(= |memory_model::choice_rf_3_3_1_11_F_211| false)
(= |memory_model::choice_rf_3_3_2_12_F_212| true)
(= |memory_model::choice_rf_3_23_0_54_F_213| false)
(= |memory_model::choice_rf_3_23_0_81_F_214| false)
(= |memory_model::choice_rf_3_23_0_105_F_215| false)
(= |memory_model::choice_rf_3_23_1_11_F_216| false)
(= |memory_model::choice_rf_3_23_2_12_F_217| false)
(= |memory_model::choice_rf_3_23_3_9_F_218| true)
(= |memory_model::choice_rf_0_87_0_34_F_219| false)
(= |memory_model::choice_rf_0_87_1_21_F_220| false)
(= |memory_model::choice_rf_0_87_3_18_F_221| false)
(= |memory_model::choice_rf_0_88_0_35_F_222| false)
(= |memory_model::choice_rf_0_88_1_16_F_223| false)
(= |memory_model::choice_rf_0_90_0_36_F_224| false)
(= |memory_model::choice_rf_0_90_1_20_F_225| false)
(= |memory_model::choice_rf_0_90_3_16_F_226| false)
(= |memory_model::choice_rf_0_95_0_2_F_227| true)
(= |memory_model::choice_ws-ext_0_11_1_26_T_228| true)
(= |memory_model::choice_ws-ext_0_11_2_18_T_229| true)
(= |memory_model::choice_ws-ext_0_11_3_35_T_230| true)
(= |memory_model::choice_ws-ext_1_26_2_18_T_231| false)
(= |memory_model::choice_ws-ext_1_26_3_35_T_232| false)
(= |memory_model::choice_ws-ext_2_18_3_35_T_233| true)
(= |memory_model::choice_ws-ext_0_37_1_22_F_234| true)
(= |memory_model::choice_ws-ext_0_12_1_24_F_235| true)
(= |memory_model::choice_ws-ext_0_12_2_16_F_236| true)
(= |memory_model::choice_ws-ext_0_12_3_33_F_237| true)
(= |memory_model::choice_ws-ext_1_24_2_16_F_238| false)
(= |memory_model::choice_ws-ext_1_24_3_33_F_239| true)
(= |memory_model::choice_ws-ext_2_16_3_33_F_240| true)
(= |memory_model::choice_ws-ext_0_13_1_19_F_241| true)
(= |memory_model::choice_ws-ext_0_110_1_19_F_242| false)
(= |memory_model::choice_ws-ext_0_24_1_8_F_243| true)
(= |memory_model::choice_ws-ext_0_25_1_7_F_244| true)
(= |memory_model::choice_ws-ext_0_30_2_1_F_245| true)
(= |memory_model::choice_ws-ext_0_31_3_7_F_246| true)
(= |memory_model::choice_ws-ext_0_38_1_15_F_247| true)
(= |memory_model::choice_ws-ext_0_38_2_2_F_248| true)
(= |memory_model::choice_ws-ext_0_38_2_14_F_249| true)
(= |memory_model::choice_ws-ext_0_38_3_13_F_250| true)
(= |memory_model::choice_ws-ext_0_38_3_19_F_251| true)
(= |memory_model::choice_ws-ext_0_38_3_31_F_252| true)
(= |memory_model::choice_ws-ext_0_83_1_15_F_253| false)
(= |memory_model::choice_ws-ext_0_83_2_2_F_254| false)
(= |memory_model::choice_ws-ext_0_83_2_14_F_255| false)
(= |memory_model::choice_ws-ext_0_83_3_13_F_256| false)
(= |memory_model::choice_ws-ext_0_83_3_19_F_257| false)
(= |memory_model::choice_ws-ext_0_83_3_31_F_258| false)
(= |memory_model::choice_ws-ext_0_108_1_15_F_259| false)
(= |memory_model::choice_ws-ext_0_108_2_2_F_260| false)
(= |memory_model::choice_ws-ext_0_108_2_14_F_261| false)
(= |memory_model::choice_ws-ext_0_108_3_13_F_262| false)
(= |memory_model::choice_ws-ext_0_108_3_19_F_263| false)
(= |memory_model::choice_ws-ext_0_108_3_31_F_264| false)
(= |memory_model::choice_ws-ext_1_15_2_2_F_265| true)
(= |memory_model::choice_ws-ext_1_15_2_14_F_266| true)
(= |memory_model::choice_ws-ext_1_15_3_13_F_267| true)
(= |memory_model::choice_ws-ext_1_15_3_19_F_268| true)
(= |memory_model::choice_ws-ext_1_15_3_31_F_269| true)
(= |memory_model::choice_ws-ext_2_2_3_13_F_270| true)
(= |memory_model::choice_ws-ext_2_2_3_19_F_271| true)
(= |memory_model::choice_ws-ext_2_2_3_31_F_272| true)
(= |memory_model::choice_ws-ext_2_14_3_13_F_273| true)
(= |memory_model::choice_ws-ext_2_14_3_19_F_274| true)
(= |memory_model::choice_ws-ext_2_14_3_31_F_275| true)
(= |memory_model::choice_ws-ext_0_39_1_18_F_276| true)
(= |memory_model::choice_ws-ext_0_39_3_15_F_277| true)
(= |memory_model::choice_ws-ext_0_106_1_18_F_278| false)
(= |memory_model::choice_ws-ext_0_106_3_15_F_279| false)
(= |memory_model::choice_ws-ext_1_18_3_15_F_280| true)
(= |memory_model::choice_ws-ext_0_40_1_17_F_281| true)
(= |memory_model::choice_ws-ext_0_40_3_14_F_282| true)
(= |memory_model::choice_ws-ext_0_107_1_17_F_283| false)
(= |memory_model::choice_ws-ext_0_107_3_14_F_284| false)
(= |memory_model::choice_ws-ext_1_17_3_14_F_285| true)
(= |memory_model::choice_ws-ext_0_42_1_10_F_286| true)
(= |memory_model::choice_ws-ext_0_43_2_11_F_287| true)
(= |memory_model::choice_ws-ext_0_44_3_17_F_288| true)
(= |memory_model::choice_ws-ext_0_44_3_28_F_289| true)
(= |memory_model::choice_ws-ext_0_46_1_9_F_290| true)
(= |memory_model::choice_ws-ext_0_47_2_10_F_291| true)
(= |memory_model::choice_ws-ext_0_48_3_8_F_292| true)
(= |memory_model::choice_ws-ext_0_48_3_27_F_293| true)
(= |memory_model::choice_ws-ext_0_51_1_14_F_294| true)
(= |memory_model::choice_ws-ext_0_51_3_12_F_295| true)
(= |memory_model::choice_ws-ext_0_111_1_14_F_296| false)
(= |memory_model::choice_ws-ext_0_111_3_12_F_297| false)
(= |memory_model::choice_ws-ext_1_14_3_12_F_298| true)
(= |memory_model::choice_ws-ext_0_52_1_12_F_299| true)
(= |memory_model::choice_ws-ext_0_52_2_13_F_300| true)
(= |memory_model::choice_ws-ext_0_52_3_10_F_301| true)
(= |memory_model::choice_ws-ext_0_52_3_30_F_302| true)
(= |memory_model::choice_ws-ext_0_82_1_12_F_303| false)
(= |memory_model::choice_ws-ext_0_82_2_13_F_304| false)
(= |memory_model::choice_ws-ext_0_82_3_10_F_305| false)
(= |memory_model::choice_ws-ext_0_82_3_30_F_306| false)
(= |memory_model::choice_ws-ext_0_113_1_12_F_307| false)
(= |memory_model::choice_ws-ext_0_113_2_13_F_308| false)
(= |memory_model::choice_ws-ext_0_113_3_10_F_309| false)
(= |memory_model::choice_ws-ext_0_113_3_30_F_310| false)
(= |memory_model::choice_ws-ext_1_12_2_13_F_311| true)
(= |memory_model::choice_ws-ext_1_12_3_10_F_312| true)
(= |memory_model::choice_ws-ext_1_12_3_30_F_313| true)
(= |memory_model::choice_ws-ext_2_13_3_10_F_314| true)
(= |memory_model::choice_ws-ext_2_13_3_30_F_315| true)
(= |memory_model::choice_ws-ext_0_53_1_13_F_316| true)
(= |memory_model::choice_ws-ext_0_53_3_11_F_317| true)
(= |memory_model::choice_ws-ext_0_112_1_13_F_318| false)
(= |memory_model::choice_ws-ext_0_112_3_11_F_319| false)
(= |memory_model::choice_ws-ext_1_13_3_11_F_320| true)
(= |memory_model::choice_ws-ext_0_54_1_11_F_321| true)
(= |memory_model::choice_ws-ext_0_54_2_12_F_322| true)
(= |memory_model::choice_ws-ext_0_54_3_9_F_323| true)
(= |memory_model::choice_ws-ext_0_54_3_29_F_324| true)
(= |memory_model::choice_ws-ext_0_81_1_11_F_325| false)
(= |memory_model::choice_ws-ext_0_81_2_12_F_326| false)
(= |memory_model::choice_ws-ext_0_81_3_9_F_327| false)
(= |memory_model::choice_ws-ext_0_81_3_29_F_328| false)
(= |memory_model::choice_ws-ext_0_105_1_11_F_329| false)
(= |memory_model::choice_ws-ext_0_105_2_12_F_330| false)
(= |memory_model::choice_ws-ext_0_105_3_9_F_331| false)
(= |memory_model::choice_ws-ext_0_105_3_29_F_332| false)
(= |memory_model::choice_ws-ext_1_11_2_12_F_333| true)
(= |memory_model::choice_ws-ext_1_11_3_9_F_334| true)
(= |memory_model::choice_ws-ext_1_11_3_29_F_335| true)
(= |memory_model::choice_ws-ext_2_12_3_9_F_336| true)
(= |memory_model::choice_ws-ext_2_12_3_29_F_337| true)
(= |memory_model::choice_ws-ext_0_34_1_21_F_338| true)
(= |memory_model::choice_ws-ext_0_34_3_18_F_339| true)
(= |memory_model::choice_ws-ext_0_103_1_21_F_340| false)
(= |memory_model::choice_ws-ext_0_103_3_18_F_341| false)
(= |memory_model::choice_ws-ext_1_21_3_18_F_342| true)
(= |memory_model::choice_ws-ext_0_35_1_16_F_343| true)
(= |memory_model::choice_ws-ext_0_104_1_16_F_344| false)
(= |memory_model::choice_ws-ext_0_36_1_20_F_345| true)
(= |memory_model::choice_ws-ext_0_36_3_16_F_346| true)
(= |memory_model::choice_ws-ext_0_109_1_20_F_347| false)
(= |memory_model::choice_ws-ext_0_109_3_16_F_348| false)
(= |memory_model::choice_ws-ext_1_20_3_16_F_349| true)
(= |main$tmp_guard0#3| #b00000001)
(= |__CPROVER_next_thread_id#3| #b00000000000000000000000000000001)
(= |__CPROVER_next_thread_id#6| #b00000000000000000000000000000010)
(= |__unbuffered_cnt#2| #b00000000000000000000000000000011)
(= |y$w_buff0_used#2| #b00000000)
(= |y$r_buff0_thd0#2| #b00000000)
(= |y$w_buff0#2| #b00000000000000000000000000000000)
(= |y$w_buff1_used#2| #b00000000)
(= |y$r_buff1_thd0#2| #b00000000)
(= |y$w_buff1#2| #b00000000000000000000000000000000)
(= |y#2| #b00000000000000000000000000000010)
(= |y#4| #b00000000000000000000000000000010)
(= |y$w_buff0_used#6| #b00000000)
(= |y$w_buff1_used#6| #b00000000)
(= |y$r_buff0_thd0#8| #b00000000)
(= |y$r_buff1_thd0#7| #b00000000)
(= |weak$$choice0#2| #b00000000)
(= |weak$$choice0#3| #b10000000)
(= |weak$$choice2#2| #b00000000)
(= |weak$$choice2#3| #b10000000)
(= |y$flush_delayed#2| #b00000000)
(= |y$flush_delayed#3| #b10000000)
(= |y#6| #b00000000000000000000000000000010)
(= |y$mem_tmp#2| #b00000000000000000000000000000010)
(= |y$mem_tmp#3| #b10000000000000000000000000000000)
(= |y$w_buff0_used#11| #b00000000)
(= |y$r_buff0_thd0#11| #b00000000)
(= |y$w_buff1_used#9| #b00000000)
(= |y$r_buff1_thd0#9| #b00000000)
(= |y$w_buff0#4| #b00000000000000000000000000000000)
(= |y$w_buff1#4| #b00000000000000000000000000000000)
(= |y#9| #b00000000000000000000000000000010)
(= |y$w_buff0#10| #b00000000000000000000000000000000)
(= |y$w_buff1#10| #b00000000000000000000000000000000)
(= |y$w_buff0_used#23| #b00000000)
(= |y$w_buff1_used#17| #b00000000)
(= |y$r_buff0_thd0#33| #b00000000)
(= |y$r_buff1_thd0#19| #b00000000)
(= |weak$$choice1#2| #b00000001)
(= |weak$$choice1#3| #b10000000)
(= |__unbuffered_p0_EAX$read_delayed#2| #b00000001)
(= |__unbuffered_p0_EAX$read_delayed_var$object#1| #b00000000000000000000000000000010)
(= |__unbuffered_p0_EAX#2| #b00000000000000000000000000000000)
(= |__unbuffered_p0_EAX#8| #b00000000000000000000000000000010)
(= |__unbuffered_p1_EAX#2| #b00000000000000000000000000000001)
(= |__unbuffered_p2_EAX#2| #b00000000000000000000000000000001)
(= |main$tmp_guard1#2| #b00000000)
(= |main$tmp_guard1#3| #b10000000)
(= |y#13| #b00000000000000000000000000000010)
(= |y$flush_delayed#6| #b00000000)
(= |main$tmp_guard1#6| #b00000000)
(= |pthread_create::1::this_thread_id!1@0#0| #b00000000000000000000000000000000)
(= |y#15| #b00000000000000000000000000000000)
(= |y$w_buff0_used#31| #b00000000)
(= |y$r_buff0_thd1#2| #b00000000)
(= |y$w_buff0#12| #b00000000000000000000000000000000)
(= |y$r_buff1_thd1#2| #b00000000)
(= |y$w_buff1_used#21| #b00000000)
(= |y$w_buff1#12| #b00000000000000000000000000000000)
(= |__unbuffered_cnt#4| #b00000000000000000000000000000001)
(= |pthread_create::1::this_thread_id!2@0#0| #b00000000000000000000000000000000)
(= |x#3| #b00000000000000000000000000000001)
(= |y$w_buff0_used#34| #b00000000)
(= |y$r_buff0_thd2#2| #b00000000)
(= |y$w_buff0#15| #b00000000000000000000000000000000)
(= |y$w_buff1_used#24| #b00000000)
(= |y$r_buff1_thd2#2| #b00000000)
(= |y$w_buff1#15| #b00000000000000000000000000000000)
(= |y#20| #b00000000000000000000000000000001)
(= |__unbuffered_cnt#7| #b00000000000000000000000000000000)
(= |pthread_create::1::this_thread_id!3@0#0| #b10000000000000000000000000000000)
(= |y#23| #b00000000000000000000000000000001)
(= |y$w_buff0_used#37| #b00000000)
(= |y$r_buff0_thd3#2| #b00000000)
(= |y$w_buff1_used#27| #b00000000)
(= |y$r_buff1_thd3#2| #b00000000)
(= |y$w_buff0#17| #b00000000000000000000000000000000)
(= |y$w_buff1#17| #b00000000000000000000000000000000)
(= |y$w_buff0_used#40| #b00000000)
(= |y$r_buff0_thd3#5| #b00000000)
(= |y$w_buff0#20| #b00000000000000000000000000000000)
(= |y$w_buff1_used#30| #b00000000)
(= |y$r_buff1_thd3#5| #b00000000)
(= |y$w_buff1#20| #b00000000000000000000000000000000)
(= |y#28| #b00000000000000000000000000000010)
(= |__unbuffered_cnt#10| #b00000000000000000000000000000010)
(= |__CPROVER_threads_exited#1$wclk$8| #b00001011)
(= |__CPROVER_threads_exited#2$rclk$8| #b11111010)
(= |__CPROVER_threads_exited#5$wclk$8| #b11011001)
(= |__CPROVER_threads_exited#7$wclk$8| #b11111001)
(= |__CPROVER_threads_exited#4$rclk$8| #b11011000)
(= |__CPROVER_threads_exited#3$wclk$8| #b11111011)
(= |__CPROVER_threads_exited#6$rclk$8| #b11011100)
(= |x#1$wclk$8| #b01101010)
(= |x#3$rclk$8| #b11001100)
(= |x#2$wclk$8| #b11000111)
(= |__unbuffered_cnt#6$wclk$8| #b11011001)
(= |__unbuffered_cnt#2$rclk$8| #b11011100)
(= |__unbuffered_cnt#9$wclk$8| #b11001111)
(= |__unbuffered_cnt#12$wclk$8| #b11011011)
(= |__unbuffered_cnt#1$wclk$8| #b00001100)
(= |__unbuffered_cnt#4$rclk$8| #b11011001)
(= |__unbuffered_cnt#7$rclk$8| #b11001111)
(= |__unbuffered_cnt#10$rclk$8| #b11011011)
(= |__unbuffered_p0_EAX#11$wclk$8| #b11000110)
(= |__unbuffered_p0_EAX#2$rclk$8| #b11101000)
(= |__unbuffered_p0_EAX$read_delayed#4$wclk$8| #b11000110)
(= |__unbuffered_p0_EAX$read_delayed#2$rclk$8| #b11101000)
(= |__unbuffered_p1_EAX#4$wclk$8| #b11001100)
(= |__unbuffered_p1_EAX#2$rclk$8| #b11101000)
(= |__unbuffered_p2_EAX#4$wclk$8| #b11011000)
(= |__unbuffered_p2_EAX#2$rclk$8| #b11101000)
(= |main$tmp_guard1#5| #b00000000)
(= |y#18$wclk$8| #b11000110)
(= |y#2$rclk$8| #b11011110)
(= |y#19$wclk$8| #b11001101)
(= |y#22$wclk$8| #b11001110)
(= |y#26$wclk$8| #b11011000)
(= |y#27$wclk$8| #b11011001)
(= |y#30$wclk$8| #b11011010)
(= |y#6$rclk$8| #b11101000)
(= |y#1$wclk$8| #b01101011)
(= |y#15$rclk$8| #b11000110)
(= |y#5$wclk$8| #b11011110)
(= |y#14$wclk$8| #b11101000)
(= |y#20$rclk$8| #b11001110)
(= |y#23$rclk$8| #b11011000)
(= |y#28$rclk$8| #b11011010)
(= |y$flush_delayed#9$wclk$8| #b11000110)
(= |y$flush_delayed#3$rclk$8| #b11101000)
(= |y$flush_delayed#11$wclk$8| #b11011000)
(= |y$mem_tmp#6$wclk$8| #b11000110)
(= |y$mem_tmp#3$rclk$8| #b11101000)
(= |y$mem_tmp#7$wclk$8| #b11011000)
(= |y$r_buff0_thd1#1$wclk$8| #b01101111)
(= |y$r_buff0_thd1#2$rclk$8| #b11000110)
(= |y$r_buff0_thd2#1$wclk$8| #b01110000)
(= |y$r_buff0_thd2#2$rclk$8| #b11001110)
(= |y$r_buff0_thd3#1$wclk$8| #b01110001)
(= |y$r_buff0_thd3#2$rclk$8| #b11011000)
(= |y$r_buff0_thd3#5$rclk$8| #b11011010)
(= |y$r_buff1_thd1#1$wclk$8| #b01110100)
(= |y$r_buff1_thd1#2$rclk$8| #b11000110)
(= |y$r_buff1_thd2#1$wclk$8| #b01110111)
(= |y$r_buff1_thd2#2$rclk$8| #b11001110)
(= |y$r_buff1_thd3#1$wclk$8| #b01111100)
(= |y$r_buff1_thd3#2$rclk$8| #b11011000)
(= |y$r_buff1_thd3#5$rclk$8| #b11011010)
(= |y$w_buff0#14$wclk$8| #b11000110)
(= |y$w_buff0#2$rclk$8| #b11011110)
(= |y$w_buff0#19$wclk$8| #b11011000)
(= |y$w_buff0#4$rclk$8| #b11101000)
(= |y$w_buff0#1$wclk$8| #b01111111)
(= |y$w_buff0#12$rclk$8| #b11000110)
(= |y$w_buff0#11$wclk$8| #b11101000)
(= |y$w_buff0#15$rclk$8| #b11001110)
(= |y$w_buff0#17$rclk$8| #b11011000)
(= |y$w_buff0#20$rclk$8| #b11011010)
(= |y$w_buff0_used#33$wclk$8| #b11000110)
(= |y$w_buff0_used#2$rclk$8| #b11011110)
(= |y$w_buff0_used#36$wclk$8| #b11001110)
(= |y$w_buff0_used#39$wclk$8| #b11011000)
(= |y$w_buff0_used#42$wclk$8| #b11011010)
(= |y$w_buff0_used#11$rclk$8| #b11101000)
(= |y$w_buff0_used#1$wclk$8| #b10110100)
(= |y$w_buff0_used#31$rclk$8| #b11000110)
(= |y$w_buff0_used#10$wclk$8| #b11011110)
(= |y$w_buff0_used#30$wclk$8| #b11101000)
(= |y$w_buff0_used#34$rclk$8| #b11001110)
(= |y$w_buff0_used#37$rclk$8| #b11011000)
(= |y$w_buff0_used#40$rclk$8| #b11011010)
(= |y$w_buff1#14$wclk$8| #b11000110)
(= |y$w_buff1#2$rclk$8| #b11011110)
(= |y$w_buff1#19$wclk$8| #b11011000)
(= |y$w_buff1#4$rclk$8| #b11101000)
(= |y$w_buff1#1$wclk$8| #b10111000)
(= |y$w_buff1#12$rclk$8| #b11000110)
(= |y$w_buff1#11$wclk$8| #b11101000)
(= |y$w_buff1#15$rclk$8| #b11001110)
(= |y$w_buff1#17$rclk$8| #b11011000)
(= |y$w_buff1#20$rclk$8| #b11011010)
(= |y$w_buff1_used#23$wclk$8| #b11000110)
(= |y$w_buff1_used#2$rclk$8| #b11011110)
(= |y$w_buff1_used#26$wclk$8| #b11001110)
(= |y$w_buff1_used#29$wclk$8| #b11011000)
(= |y$w_buff1_used#32$wclk$8| #b11011010)
(= |y$w_buff1_used#9$rclk$8| #b11101000)
(= |y$w_buff1_used#1$wclk$8| #b11000001)
(= |y$w_buff1_used#21$rclk$8| #b11000110)
(= |y$w_buff1_used#8$wclk$8| #b11011110)
(= |y$w_buff1_used#20$wclk$8| #b11101000)
(= |y$w_buff1_used#24$rclk$8| #b11001110)
(= |y$w_buff1_used#27$rclk$8| #b11011000)
(= |y$w_buff1_used#30$rclk$8| #b11011010)
(= |weak$$choice0#5$wclk$8| #b11000110)
(= |weak$$choice0#3$rclk$8| #b11101000)
(= |weak$$choice0#6$wclk$8| #b11011000)
(= |weak$$choice1#8$wclk$8| #b11000110)
(= |weak$$choice1#3$rclk$8| #b11101000)
(= |weak$$choice2#12$wclk$8| #b11000110)
(= |weak$$choice2#3$rclk$8| #b11101000)
(= |weak$$choice2#13$wclk$8| #b11011000)
(= __unbuffered_p0_EAX$read_delayed_var$object #b00000000000000000000000000000010)
(= |__unbuffered_p0_EAX#1$wclk$8| #b00001101)
(= |__unbuffered_p0_EAX#10$wclk$8| #b11101000)
(= |__unbuffered_p0_EAX$read_delayed#1$wclk$8| #b00011001)
(= |__unbuffered_p0_EAX$read_delayed_var#1$wclk$8| #b00011010)
(= |__unbuffered_p0_EAX$read_delayed_var#2$wclk$8| #b11000110)
(= |__unbuffered_p1_EAX#1$wclk$8| #b00011111)
(= |__unbuffered_p2_EAX#1$wclk$8| #b00100101)
(= |y$flush_delayed#1$wclk$8| #b01101100)
(= |y$flush_delayed#7$wclk$8| #b11101000)
(= |y$mem_tmp#1$wclk$8| #b01101101)
(= |y$mem_tmp#5$wclk$8| #b11101000)
(= |y$r_buff0_thd1#4$wclk$8| #b11000110)
(= |y$r_buff0_thd2#4$wclk$8| #b11001110)
(= |y$r_buff0_thd3#4$wclk$8| #b11011000)
(= |y$r_buff0_thd3#7$wclk$8| #b11011010)
(= |y$r_buff1_thd1#4$wclk$8| #b11000110)
(= |y$r_buff1_thd2#4$wclk$8| #b11001110)
(= |y$r_buff1_thd3#4$wclk$8| #b11011000)
(= |y$r_buff1_thd3#7$wclk$8| #b11011010)
(= |weak$$choice0#1$wclk$8| #b01100000)
(= |weak$$choice0#4$wclk$8| #b11101000)
(= |weak$$choice1#1$wclk$8| #b01100100)
(= |weak$$choice1#7$wclk$8| #b11101000)
(= |weak$$choice2#1$wclk$8| #b01101001)
(= |weak$$choice2#11$wclk$8| #b11101000)
(= t1$58$spwnclk$8 #b11000101)
(= t1$63$spwnclk$8 #b11001010)
(= t1$68$spwnclk$8 #b11001110)
(= |main::1::t1780!0@1$wclk$8| #b00000000)
(= |main::1::t1781!0@1$wclk$8| #b00000001)
(= __unbuffered_p0_EAX$read_delayed_var$object$wclk$8 #b00000010)
(= |__CPROVER_dead_object#1$wclk$8| #b00000011)
(= |__CPROVER_deallocated#1$wclk$8| #b00000100)
(= |__CPROVER_malloc_is_new_array#1$wclk$8| #b00000101)
(= |__CPROVER_malloc_object#1$wclk$8| #b00000110)
(= |__CPROVER_malloc_size#1$wclk$8| #b00000111)
(= |__CPROVER_memory_leak#1$wclk$8| #b00001000)
(= |__CPROVER_next_thread_id#1$wclk$8| #b00001001)
(= |__CPROVER_pipe_count#1$wclk$8| #b00001010)
(= |__unbuffered_p0_EAX$flush_delayed#1$wclk$8| #b00001110)
(= |__unbuffered_p0_EAX$mem_tmp#1$wclk$8| #b00010000)
(= |__unbuffered_p0_EAX$r_buff0_thd0#1$wclk$8| #b00010001)
(= |__unbuffered_p0_EAX$r_buff0_thd1#1$wclk$8| #b00010010)
(= |__unbuffered_p0_EAX$r_buff0_thd2#1$wclk$8| #b00010011)
(= |__unbuffered_p0_EAX$r_buff0_thd3#1$wclk$8| #b00010100)
(= |__unbuffered_p0_EAX$r_buff1_thd0#1$wclk$8| #b00010101)
(= |__unbuffered_p0_EAX$r_buff1_thd1#1$wclk$8| #b00010110)
(= |__unbuffered_p0_EAX$r_buff1_thd2#1$wclk$8| #b00010111)
(= |__unbuffered_p0_EAX$r_buff1_thd3#1$wclk$8| #b00011000)
(= |__unbuffered_p0_EAX$w_buff0#1$wclk$8| #b00011011)
(= |__unbuffered_p0_EAX$w_buff0_used#1$wclk$8| #b00011100)
(= |__unbuffered_p0_EAX$w_buff1#1$wclk$8| #b00011101)
(= |__unbuffered_p0_EAX$w_buff1_used#1$wclk$8| #b00011110)
(= |main$tmp_guard0#1$wclk$8| #b00100110)
(= |main$tmp_guard1#1$wclk$8| #b00100111)
(= |y$r_buff0_thd0#1$wclk$8| #b01101110)
(= |y$r_buff1_thd0#1$wclk$8| #b01110010)
(= |y$read_delayed#1$wclk$8| #b01111101)
(= |y$read_delayed_var#1$wclk$8| #b01111110)
(= |main::1::t1779!0@1#1$wclk$8| #b11000010)
(= |__CPROVER_next_thread_id#2$wclk$8| #b11000011)
(= |main::1::t1779!0@1#2$wclk$8| #b11000100)
(= |main::1::t1780!0@1#1$wclk$8| #b11000110)
(= |__CPROVER_next_thread_id#3$rclk$8| #b11000111)
(= |__CPROVER_next_thread_id#5$wclk$8| #b11000111)
(= |main::1::t1780!0@1#2$wclk$8| #b11001000)
(= |main::1::t1781!0@1#1$wclk$8| #b11001011)
(= |__CPROVER_next_thread_id#6$rclk$8| #b11001100)
(= |__CPROVER_next_thread_id#8$wclk$8| #b11001100)
(= |main::1::t1781!0@1#2$wclk$8| #b11001101)
(= |main$tmp_guard0#2$wclk$8| #b11011100)
(= |main$tmp_guard0#3$rclk$8| #b11011101)
(= |y$r_buff1_thd0#2$rclk$8| #b11011110)
(= |y$r_buff0_thd0#2$rclk$8| #b11011110)
(= |y$r_buff1_thd0#8$wclk$8| #b11011110)
(= |y$r_buff0_thd0#10$wclk$8| #b11011110)
(= |main$tmp_guard1#3$rclk$8| #b11101000)
(= |__unbuffered_p0_EAX$read_delayed_var$object#1$rclk$8| #b11101000)
(= |y$r_buff0_thd0#11$rclk$8| #b11101000)
(= |y$r_buff1_thd0#9$rclk$8| #b11101000)
(= |main$tmp_guard1#4$wclk$8| #b11101000)
(= |y$r_buff0_thd0#37$wclk$8| #b11101000)
(= |y$r_buff1_thd0#20$wclk$8| #b11101000)
(= |main$tmp_guard1#5$rclk$8| #b11110010)
(= |main$tmp_guard1#6$rclk$8| #b11110011)
(= array_of.0 @fun_10)
(= |__CPROVER_threads_exited#2| @fun_7)
(= |__CPROVER_threads_exited#4| @fun_10)
(= |__CPROVER_threads_exited#6| @fun_11)
(function @fun_10
 (type (Array (_ BitVec 32) (_ BitVec 1)))
 (= (@fun_10 #b00000000000000000000000000000000) #b0)
 (= (@fun_10 #b10000000000000000000000000000000) #b0)
 (default #b1))
(function @fun_7
 (type (Array (_ BitVec 32) (_ BitVec 1)))
 (default #b1))
(function @fun_11
 (type (Array (_ BitVec 32) (_ BitVec 1)))
 (= (@fun_11 #b10000000000000000000000000000000) #b0)
 (default #b1))

real	0m0.030s
user	0m0.020s
sys	0m0.010s
State: AC Run_time: 0.03193926811218262